
Gurobi 10.0.1 (win64) logging started Sat Sep 16 16:57:12 2023

Set parameter LogFile to value "./results-heuristic-start//log/Fattahi_setup_08_modified_old_makespan.log"
Gurobi Optimizer version 10.0.1 build v10.0.1rc0 (win64)

CPU model: AMD Ryzen 7 3700X 8-Core Processor, instruction set [SSE2|AVX|AVX2]
Thread count: 8 physical cores, 16 logical processors, using up to 16 threads

Optimize a model with 136 rows, 118 columns and 523 nonzeros
Model fingerprint: 0x4a3403f2
Variable types: 18 continuous, 100 integer (99 binary)
Coefficient statistics:
  Matrix range     [1e+00, 1e+06]
  Objective range  [1e+00, 1e+00]
  Bounds range     [1e+00, 1e+00]
  RHS range        [1e+00, 3e+06]

User MIP start did not produce a new incumbent solution
User MIP start violates constraint initial_start_time_job0_stage0_machine0_constraint by 420.000000000

Presolve removed 27 rows and 56 columns
Presolve time: 0.00s
Presolved: 109 rows, 62 columns, 478 nonzeros
Variable types: 18 continuous, 44 integer (43 binary)
Found heuristic solution: objective 3013.0000000
Found heuristic solution: objective 2846.0000000
Found heuristic solution: objective 2692.0000000

Root relaxation: objective 2.003000e+03, 24 iterations, 0.00 seconds (0.00 work units)

    Nodes    |    Current Node    |     Objective Bounds      |     Work
 Expl Unexpl |  Obj  Depth IntInf | Incumbent    BestBd   Gap | It/Node Time

     0     0 2003.00000    0    7 2692.00000 2003.00000  25.6%     -    0s
Another try with MIP start
H    0     0                    2644.0000000 2003.00000  24.2%     -    0s
H    0     0                    2633.0000000 2003.00000  23.9%     -    0s
     0     0 2013.00000    0    7 2633.00000 2013.00000  23.5%     -    0s
H    0     0                    2463.0000000 2013.00000  18.3%     -    0s
     0     0 2024.00000    0   11 2463.00000 2024.00000  17.8%     -    0s
     0     0 2026.00000    0    9 2463.00000 2026.00000  17.7%     -    0s
     0     0 2026.00000    0    7 2463.00000 2026.00000  17.7%     -    0s
     0     0 2028.00000    0    8 2463.00000 2028.00000  17.7%     -    0s
     0     0 2028.00252    0    9 2463.00000 2028.00252  17.7%     -    0s
     0     0 2028.00252    0    9 2463.00000 2028.00252  17.7%     -    0s
     0     0 2036.00000    0    9 2463.00000 2036.00000  17.3%     -    0s
H    0     1                    2461.0000000 2036.00000  17.3%     -    0s
     0     1 2036.00000    0    8 2461.00000 2036.00000  17.3%     -    0s
H    1     2                    2459.0000000 2036.00000  17.2%   0.0    0s
H    9     4                    2365.0000000 2036.00000  13.9%   4.7    0s

Cutting planes:
  Learned: 7
  Gomory: 3
  Implied bound: 8
  MIR: 6
  Flow cover: 16
  Inf proof: 2

Explored 512 nodes (1830 simplex iterations) in 0.06 seconds (0.02 work units)
Thread count was 16 (of 16 available processors)

Solution count 9: 2365 2459 2461 ... 3013

Optimal solution found (tolerance 1.00e-04)
Best objective 2.365000000000e+03, best bound 2.365000000000e+03, gap 0.0000%
Warning: constraint name "precedence between 0,1 to 0,0 if x_[j,l,h,z,i]=1" has a space
Warning: constraint name "precedence between 0,1 to 0,0 if x_[j,l,h,z,i]=1" has a space
Warning: default constraint names used to write mps file
